3 
4  26 49 
5  07 21 36 50 
6  05 20 35 50 
7  05 20 35 50 
8  05 20 35 50 
9  05 20 35 50 
10  05 21 36 51 
11  06 21 36 51 
12  06 21 36 51 
13  06 21 34 49 
14  07 22 37 52 
15  09 24 38 53 
16  08 23 38 53 
17  08 23 38 52 
18  07 22 34 49 
19  04 19 32 46 
20  01 16 31 46 
21  01 16 31 46 
22  01 16 31 48 
23  00 11 24 
0 
